# Cost: 355

# Tail Head Net
36 16 1
56 36 1
76 56 1
96 76 1
116 96 1
136 116 1
142 141 1
143 142 1
154 554 1
155 154 1
156 136 1
156 155 1
176 156 1
196 176 1
197 196 1
217 197 1
218 217 1
219 218 1
220 219 1
543 143 1
544 543 1
545 544 1
546 545 1
547 546 1
548 547 1
549 548 1
550 549 1
551 550 1
552 551 1
553 552 1
554 553 1
8 9 2
9 29 2
29 49 2
49 69 2
69 89 2
89 109 2
109 129 2
129 149 2
149 169 2
169 189 2
189 209 2
209 229 2
229 249 2
249 269 2
269 289 2
286 686 2
287 286 2
288 287 2
289 288 2
289 290 2
290 291 2
291 292 2
292 293 2
293 294 2
294 295 2
295 296 2
296 297 2
297 298 2
298 299 2
299 300 2
686 706 2
706 726 2
726 746 2
746 766 2
766 786 2
786 386 2
201 221 3
221 241 3
241 261 3
261 262 3
262 263 3
263 283 3
283 303 3
303 323 3
323 343 3
343 363 3
363 383 3
99 100 4
100 80 4
119 99 4
139 119 4
158 159 4
159 139 4
178 158 4
389 789 4
576 577 4
577 578 4
578 178 4
596 576 4
616 596 4
636 616 4
656 636 4
676 656 4
691 692 4
692 693 4
693 694 4
694 695 4
695 696 4
696 676 4
710 711 4
711 691 4
729 730 4
730 710 4
741 341 4
742 741 4
743 742 4
744 743 4
745 744 4
749 729 4
749 1149 4
769 749 4
789 769 4
1145 745 4
1146 1145 4
1147 1146 4
1148 1147 4
1149 1148 4
3 4 5
4 5 5
5 25 5
25 45 5
45 65 5
65 85 5
85 105 5
105 125 5
125 145 5
145 165 5
165 185 5
185 205 5
205 225 5
225 245 5
245 265 5
265 285 5
285 305 5
305 306 5
306 307 5
307 308 5
308 309 5
309 310 5
310 311 5
311 312 5
312 313 5
312 712 5
313 314 5
314 315 5
315 316 5
316 317 5
317 318 5
318 319 5
319 320 5
372 392 5
712 732 5
732 752 5
752 772 5
772 372 5
21 22 6
22 23 6
23 43 6
43 63 6
63 64 6
64 84 6
84 104 6
104 124 6
124 144 6
144 164 6
164 184 6
184 204 6
204 224 6
224 244 6
244 264 6
264 284 6
284 304 6
304 324 6
324 325 6
325 326 6
326 327 6
327 328 6
328 329 6
329 330 6
330 331 6
331 332 6
332 352 6
352 353 6
353 373 6
373 374 6
374 375 6
375 395 6
395 396 6
396 397 6
397 398 6
398 399 6
399 400 6
384 385 7
322 722 8
342 322 8
362 342 8
382 362 8
507 508 8
508 509 8
509 510 8
510 511 8
511 512 8
512 513 8
513 514 8
514 515 8
515 516 8
516 517 8
517 518 8
518 519 8
519 520 8
520 120 8
522 523 8
523 524 8
524 525 8
525 526 8
526 527 8
527 507 8
542 522 8
562 542 8
582 562 8
602 582 8
622 602 8
642 622 8
662 642 8
682 662 8
702 682 8
722 702 8
321 721 9
376 377 9
377 378 9
378 379 9
379 380 9
721 1121 9
775 776 9
776 376 9
1121 1122 9
1122 1123 9
1123 1143 9
1143 1163 9
1163 1164 9
1164 1165 9
1165 1166 9
1166 1167 9
1167 1168 9
1168 1169 9
1169 1170 9
1170 1171 9
1171 1172 9
1172 1173 9
1173 1174 9
1174 1175 9
1175 775 9
14 15 10
15 35 10
35 55 10
55 75 10
75 95 10
95 115 10
115 135 10
135 535 10
339 340 10
535 536 10
536 537 10
537 538 10
538 558 10
558 559 10
559 579 10
579 599 10
599 619 10
619 639 10
639 659 10
659 679 10
679 699 10
699 719 10
719 739 10
739 339 10
7 27 11
27 47 11
47 48 11
48 68 11
68 88 11
88 108 11
108 128 11
128 148 11
148 168 11
168 188 11
188 208 11
208 228 11
228 248 11
248 648 11
648 668 11
668 688 11
688 708 11
708 728 11
728 748 11
748 768 11
768 788 11
788 388 11
160 140 12
180 160 12
39 40 13
58 59 13
59 39 13
78 58 13
98 78 13
118 98 13
137 138 13
138 118 13
157 137 13
387 787 13
555 556 13
556 557 13
557 157 13
571 572 13
572 573 13
573 574 13
574 575 13
575 555 13
589 590 13
590 591 13
591 571 13
608 609 13
609 589 13
627 628 13
628 608 13
647 627 13
667 647 13
687 667 13
707 687 13
727 707 13
747 727 13
767 747 13
787 767 13
12 32 14
32 52 14
52 452 14
451 471 14
452 451 14
471 491 14
481 501 14
482 481 14
483 482 14
484 483 14
485 484 14
486 485 14
487 486 14
488 487 14
489 488 14
490 489 14
491 490 14
501 521 14
521 121 14
19 18 15
20 19 15
